NAME NEXAMPLE
ROWS
 N  OBJ
 E  ROW01   
 E  ROW02   
 E  ROW03   
COLUMNS
    COL01     OBJ       1
    COL01     ROW01     1
    COL01     ROW03     -1
    COL02     OBJ       2
    COL02     ROW01     1
    COL02     ROW02     -1
    COL03     OBJ       1
    COL03     ROW02     1
    COL03     ROW03     -1
    MPS_RgROW01  ROW01     -1
RHS
    RHS1      ROW01     2
    RHS1      ROW03     -3
BOUNDS
 UP BND1      COL01     1
 UP BND1      MPS_RgROW01  2
ENDATA
